peakDumbCharging = 25900; 
Machine = anon_enum(16); 
machineSpeed = [3700,3700,3700,3700,3700,3700,3700,3700,3700,3700,3700,3700,3700,3700,3700,3700]; 
machineLoad = [3700,3700,3700,3700,3700,3700,3700,3700,3700,3700,3700,3700,3700,3700,3700,3700]; 
Car = anon_enum(31); 
demandCar = [4440,10320,4400,16040,9000,8760,5240,3040,4320,11600,5120,30760,11960,2120,6600,7960,21520,440,1760,5840,8160,12680,5360,4840,7760,9360,10120,2240,3880,4200,8840]; 
arrivalCar = [70,64,62,61,60,55,54,50,47,46,44,44,43,43,42,42,41,40,39,39,37,37,35,35,34,32,31,31,30,29,27]; 
departureCar = [72,69,64,67,64,61,57,53,51,51,49,63,48,55,45,48,52,42,42,43,43,44,40,38,38,44,37,32,34,33,37]; 
